instancias/entrada015.lp
Maximize
 288x1 + 399x2 + 454x3 + 917x4 + 100x5 + 164x6 + 89x7 + 464x8 + 852x9 + 518x10 + 443x11 + 678x12 + 940x13 + 997x14 + 188x15 + 709x16 + 733x17 + 563x18 + 56x19 + 360x20 + 85x21 + 375x22 + 377x23 + 160x24 + 657x25 + 51x26 + 364x27 + 602x28 + 272x29 + 403x30 + 790x31 + 104x32 + 112x33 + 956x34 + 154x35 + 534x36 + 931x37 + 440x38 + 958x39 + 146x40 + 436x41 + 986x42 + 408x43 + 259x44 + 977x45 + 741x46 + 989x47 + 693x48 + 812x49 + 695x50 + 657x51 + 361x52 + 269x53 + 742x54 + 264x55 + 683x56 + 18x57 + 606x58 + 272x59 + 327x60 + 489x61 + 429x62 + 233x63 + 443x64 + 582x65 + 188x66 + 889x67 + 562x68 + 175x69 + 956x70 + 632x71 + 527x72 + 331x73 + 967x74 + 151x75 + 395x76 + 230x77 + 849x78 + 293x79 + 399x80 + 539x81 + 835x82 + 943x83 + 399x84 + 175x85 + 668x86 + 207x87 + 471x88 + 81x89 + 698x90 + 581x91 + 225x92 + 558x93 + 471x94 + 749x95 + 641x96 + 202x97 + 67x98 + 10x99 + 313x100 + 456x101 + 799x102 + 734x103 + 483x104 + 383x105 + 957x106 + 554x107 + 982x108 + 51x109 + 765x110 + 281x111 + 633x112 + 166x113 + 322x114 + 230x115 + 929x116 + 867x117 + 537x118 + 39x119 + 356x120 + 331x121 + 714x122 + 326x123 + 769x124 + 165x125 + 27x126 + 269x127 + 331x128 + 223x129 + 992x130 + 756x131 + 870x132 + 424x133 + 43x134 + 829x135 + 77x136 + 475x137 + 170x138 + 105x139 + 229x140 + 484x141 + 165x142 + 721x143 + 444x144 + 842x145 + 651x146 + 116x147 + 882x148 + 93x149 + 825x150 + 666x151 + 350x152 + 885x153 + 275x154 + 517x155 + 905x156 + 294x157 + 338x158 + 275x159 + 10x160 + 383x161 + 462x162 + 808x163 + 415x164 + 130x165 + 568x166 + 154x167 + 731x168 + 727x169 + 2x170 + 768x171 + 506x172 + 858x173 + 237x174 + 450x175 + 964x176 + 186x177 + 643x178 + 582x179 + 565x180 + 834x181 + 784x182 + 238x183 + 19x184 + 859x185 + 11x186 + 31x187 + 836x188 + 112x189 + 317x190 + 741x191 + 419x192 + 798x193 + 285x194 + 427x195 + 81x196 + 41x197 + 833x198 + 815x199 + 626x200 + 671x201 + 780x202 + 204x203 + 167x204 + 834x205 + 40x206 + 837x207 + 614x208 + 972x209 + 139x210 + 153x211 + 39x212 + 967x213 + 273x214 + 916x215 + 257x216 + 615x217 + 321x218 + 177x219 + 494x220 + 201x221 + 756x222 + 658x223 + 204x224 + 448x225 + 194x226 + 820x227 + 802x228 + 660x229 + 815x230 + 80x231 + 851x232 + 932x233 + 421x234 + 603x235 + 595x236 + 814x237 + 1000x238 + 938x239 + 661x240 + 57x241 + 27x242 + 383x243 + 872x244 + 760x245 + 556x246 + 352x247 + 492x248 + 841x249 + 275x250 + 185x251 + 949x252 + 8x253 + 830x254 + 172x255 + 438x256 + 472x257 + 604x258 + 940x259 + 737x260 + 92x261 + 337x262 + 560x263 + 246x264 + 951x265 + 424x266 + 174x267 + 122x268 + 386x269 + 767x270 + 116x271 + 561x272 + 105x273 + 563x274 + 593x275 + 922x276 + 736x277 + 486x278 + 723x279 + 935x280 + 738x281 + 420x282 + 972x283 + 588x284 + 0x285 + 109x286 + 552x287 + 181x288 + 446x289 + 35x290 + 110x291 + 12x292 + 157x293 + 127x294 + 243x295 + 995x296 + 121x297 + 562x298 + 286x299 + 790x300 + 545x301 + 23x302 + 683x303 + 222x304 + 538x305 + 495x306 + 574x307 + 384x308 + 160x309 + 975x310 + 527x311 + 664x312 + 879x313 + 694x314 + 943x315 + 178x316 + 867x317 + 532x318 + 530x319 + 373x320 + 939x321 + 238x322 + 452x323 + 841x324 + 667x325 + 105x326 + 655x327 + 714x328 + 959x329 + 641x330 + 269x331 + 494x332 + 746x333 + 40x334 + 594x335 + 292x336 + 516x337 + 332x338 + 970x339 + 988x340 + 46x341 + 113x342 + 15x343 + 303x344 + 236x345 + 551x346 + 443x347 + 608x348 + 546x349 + 622x350 + 969x351 + 539x352 + 406x353 + 859x354 + 213x355 + 235x356 + 488x357 + 781x358 + 427x359 + 372x360 + 84x361 + 165x362 + 800x363 + 542x364 + 511x365 + 680x366 + 289x367 + 854x368 + 647x369 + 615x370 + 111x371 + 488x372 + 694x373 + 140x374 + 699x375 + 105x376 + 195x377 + 997x378 + 460x379 + 546x380 + 199x381 + 372x382 + 679x383 + 678x384 + 49x385 + 348x386 + 120x387 + 189x388 + 43x389 + 708x390 + 952x391 + 441x392 + 322x393 + 779x394 + 892x395 + 832x396 + 827x397 + 344x398 + 927x399 + 603x400
Subject To
 817x1 + 991x2 + 976x3 + 22x4 + 151x5 + 47x6 + 894x7 + 559x8 + 804x9 + 368x10 + 652x11 + 266x12 + 939x13 + 108x14 + 810x15 + 325x16 + 892x17 + 191x18 + 876x19 + 230x20 + 72x21 + 210x22 + 479x23 + 352x24 + 997x25 + 864x26 + 654x27 + 959x28 + 506x29 + 779x30 + 261x31 + 165x32 + 88x33 + 639x34 + 978x35 + 889x36 + 578x37 + 272x38 + 647x39 + 729x40 + 40x41 + 185x42 + 523x43 + 928x44 + 279x45 + 402x46 + 135x47 + 260x48 + 223x49 + 344x50 + 93x51 + 13x52 + 343x53 + 697x54 + 577x55 + 776x56 + 234x57 + 329x58 + 406x59 + 324x60 + 682x61 + 482x62 + 193x63 + 957x64 + 266x65 + 899x66 + 367x67 + 27x68 + 969x69 + 463x70 + 597x71 + 87x72 + 997x73 + 783x74 + 258x75 + 643x76 + 970x77 + 947x78 + 544x79 + 281x80 + 989x81 + 440x82 + 901x83 + 604x84 + 601x85 + 807x86 + 967x87 + 523x88 + 695x89 + 2x90 + 735x91 + 502x92 + 867x93 + 590x94 + 710x95 + 654x96 + 990x97 + 788x98 + 452x99 + 524x100 + 61x101 + 600x102 + 162x103 + 353x104 + 60x105 + 335x106 + 223x107 + 294x108 + 947x109 + 979x110 + 658x111 + 751x112 + 433x113 + 786x114 + 776x115 + 804x116 + 774x117 + 263x118 + 151x119 + 663x120 + 913x121 + 881x122 + 454x123 + 99x124 + 243x125 + 840x126 + 219x127 + 407x128 + 648x129 + 907x130 + 638x131 + 206x132 + 558x133 + 891x134 + 767x135 + 807x136 + 812x137 + 990x138 + 225x139 + 753x140 + 763x141 + 665x142 + 185x143 + 641x144 + 646x145 + 437x146 + 388x147 + 450x148 + 26x149 + 132x150 + 343x151 + 923x152 + 913x153 + 180x154 + 544x155 + 113x156 + 139x157 + 911x158 + 832x159 + 592x160 + 508x161 + 86x162 + 726x163 + 395x164 + 838x165 + 498x166 + 498x167 + 161x168 + 698x169 + 526x170 + 135x171 + 466x172 + 481x173 + 87x174 + 970x175 + 751x176 + 567x177 + 104x178 + 107x179 + 531x180 + 337x181 + 858x182 + 477x183 + 937x184 + 590x185 + 424x186 + 428x187 + 484x188 + 712x189 + 251x190 + 357x191 + 759x192 + 716x193 + 43x194 + 979x195 + 721x196 + 156x197 + 391x198 + 588x199 + 297x200 + 765x201 + 834x202 + 733x203 + 349x204 + 421x205 + 803x206 + 536x207 + 882x208 + 549x209 + 473x210 + 51x211 + 787x212 + 668x213 + 421x214 + 796x215 + 84x216 + 296x217 + 54x218 + 471x219 + 275x220 + 243x221 + 754x222 + 401x223 + 733x224 + 772x225 + 606x226 + 223x227 + 3x228 + 256x229 + 491x230 + 847x231 + 480x232 + 593x233 + 867x234 + 566x235 + 309x236 + 376x237 + 157x238 + 396x239 + 807x240 + 204x241 + 295x242 + 165x243 + 899x244 + 182x245 + 587x246 + 55x247 + 72x248 + 199x249 + 939x250 + 430x251 + 101x252 + 555x253 + 342x254 + 202x255 + 534x256 + 469x257 + 88x258 + 434x259 + 541x260 + 237x261 + 871x262 + 222x263 + 145x264 + 370x265 + 701x266 + 805x267 + 867x268 + 467x269 + 174x270 + 326x271 + 409x272 + 140x273 + 748x274 + 818x275 + 187x276 + 885x277 + 788x278 + 569x279 + 473x280 + 188x281 + 966x282 + 27x283 + 53x284 + 628x285 + 381x286 + 471x287 + 107x288 + 739x289 + 100x290 + 360x291 + 778x292 + 857x293 + 295x294 + 607x295 + 557x296 + 6x297 + 769x298 + 620x299 + 966x300 + 903x301 + 507x302 + 791x303 + 241x304 + 34x305 + 936x306 + 118x307 + 115x308 + 827x309 + 772x310 + 396x311 + 980x312 + 97x313 + 787x314 + 487x315 + 490x316 + 836x317 + 443x318 + 100x319 + 54x320 + 831x321 + 161x322 + 413x323 + 295x324 + 900x325 + 858x326 + 399x327 + 639x328 + 601x329 + 312x330 + 204x331 + 851x332 + 353x333 + 934x334 + 569x335 + 423x336 + 525x337 + 144x338 + 35x339 + 876x340 + 245x341 + 599x342 + 672x343 + 58x344 + 291x345 + 744x346 + 263x347 + 616x348 + 701x349 + 953x350 + 646x351 + 111x352 + 862x353 + 546x354 + 575x355 + 504x356 + 347x357 + 919x358 + 54x359 + 499x360 + 407x361 + 979x362 + 288x363 + 754x364 + 888x365 + 953x366 + 191x367 + 698x368 + 877x369 + 501x370 + 563x371 + 22x372 + 14x373 + 85x374 + 279x375 + 940x376 + 957x377 + 785x378 + 465x379 + 944x380 + 546x381 + 194x382 + 435x383 + 176x384 + 733x385 + 878x386 + 798x387 + 337x388 + 510x389 + 543x390 + 688x391 + 382x392 + 171x393 + 167x394 + 968x395 + 978x396 + 301x397 + 159x398 + 329x399 + 934x400 <= 999
Bounds
 0 <= x1 <= 1
 0 <= x2 <= 1
 0 <= x3 <= 1
 0 <= x4 <= 1
 0 <= x5 <= 1
 0 <= x6 <= 1
 0 <= x7 <= 1
 0 <= x8 <= 1
 0 <= x9 <= 1
 0 <= x10 <= 1
 0 <= x11 <= 1
 0 <= x12 <= 1
 0 <= x13 <= 1
 0 <= x14 <= 1
 0 <= x15 <= 1
 0 <= x16 <= 1
 0 <= x17 <= 1
 0 <= x18 <= 1
 0 <= x19 <= 1
 0 <= x20 <= 1
 0 <= x21 <= 1
 0 <= x22 <= 1
 0 <= x23 <= 1
 0 <= x24 <= 1
 0 <= x25 <= 1
 0 <= x26 <= 1
 0 <= x27 <= 1
 0 <= x28 <= 1
 0 <= x29 <= 1
 0 <= x30 <= 1
 0 <= x31 <= 1
 0 <= x32 <= 1
 0 <= x33 <= 1
 0 <= x34 <= 1
 0 <= x35 <= 1
 0 <= x36 <= 1
 0 <= x37 <= 1
 0 <= x38 <= 1
 0 <= x39 <= 1
 0 <= x40 <= 1
 0 <= x41 <= 1
 0 <= x42 <= 1
 0 <= x43 <= 1
 0 <= x44 <= 1
 0 <= x45 <= 1
 0 <= x46 <= 1
 0 <= x47 <= 1
 0 <= x48 <= 1
 0 <= x49 <= 1
 0 <= x50 <= 1
 0 <= x51 <= 1
 0 <= x52 <= 1
 0 <= x53 <= 1
 0 <= x54 <= 1
 0 <= x55 <= 1
 0 <= x56 <= 1
 0 <= x57 <= 1
 0 <= x58 <= 1
 0 <= x59 <= 1
 0 <= x60 <= 1
 0 <= x61 <= 1
 0 <= x62 <= 1
 0 <= x63 <= 1
 0 <= x64 <= 1
 0 <= x65 <= 1
 0 <= x66 <= 1
 0 <= x67 <= 1
 0 <= x68 <= 1
 0 <= x69 <= 1
 0 <= x70 <= 1
 0 <= x71 <= 1
 0 <= x72 <= 1
 0 <= x73 <= 1
 0 <= x74 <= 1
 0 <= x75 <= 1
 0 <= x76 <= 1
 0 <= x77 <= 1
 0 <= x78 <= 1
 0 <= x79 <= 1
 0 <= x80 <= 1
 0 <= x81 <= 1
 0 <= x82 <= 1
 0 <= x83 <= 1
 0 <= x84 <= 1
 0 <= x85 <= 1
 0 <= x86 <= 1
 0 <= x87 <= 1
 0 <= x88 <= 1
 0 <= x89 <= 1
 0 <= x90 <= 1
 0 <= x91 <= 1
 0 <= x92 <= 1
 0 <= x93 <= 1
 0 <= x94 <= 1
 0 <= x95 <= 1
 0 <= x96 <= 1
 0 <= x97 <= 1
 0 <= x98 <= 1
 0 <= x99 <= 1
 0 <= x100 <= 1
 0 <= x101 <= 1
 0 <= x102 <= 1
 0 <= x103 <= 1
 0 <= x104 <= 1
 0 <= x105 <= 1
 0 <= x106 <= 1
 0 <= x107 <= 1
 0 <= x108 <= 1
 0 <= x109 <= 1
 0 <= x110 <= 1
 0 <= x111 <= 1
 0 <= x112 <= 1
 0 <= x113 <= 1
 0 <= x114 <= 1
 0 <= x115 <= 1
 0 <= x116 <= 1
 0 <= x117 <= 1
 0 <= x118 <= 1
 0 <= x119 <= 1
 0 <= x120 <= 1
 0 <= x121 <= 1
 0 <= x122 <= 1
 0 <= x123 <= 1
 0 <= x124 <= 1
 0 <= x125 <= 1
 0 <= x126 <= 1
 0 <= x127 <= 1
 0 <= x128 <= 1
 0 <= x129 <= 1
 0 <= x130 <= 1
 0 <= x131 <= 1
 0 <= x132 <= 1
 0 <= x133 <= 1
 0 <= x134 <= 1
 0 <= x135 <= 1
 0 <= x136 <= 1
 0 <= x137 <= 1
 0 <= x138 <= 1
 0 <= x139 <= 1
 0 <= x140 <= 1
 0 <= x141 <= 1
 0 <= x142 <= 1
 0 <= x143 <= 1
 0 <= x144 <= 1
 0 <= x145 <= 1
 0 <= x146 <= 1
 0 <= x147 <= 1
 0 <= x148 <= 1
 0 <= x149 <= 1
 0 <= x150 <= 1
 0 <= x151 <= 1
 0 <= x152 <= 1
 0 <= x153 <= 1
 0 <= x154 <= 1
 0 <= x155 <= 1
 0 <= x156 <= 1
 0 <= x157 <= 1
 0 <= x158 <= 1
 0 <= x159 <= 1
 0 <= x160 <= 1
 0 <= x161 <= 1
 0 <= x162 <= 1
 0 <= x163 <= 1
 0 <= x164 <= 1
 0 <= x165 <= 1
 0 <= x166 <= 1
 0 <= x167 <= 1
 0 <= x168 <= 1
 0 <= x169 <= 1
 0 <= x170 <= 1
 0 <= x171 <= 1
 0 <= x172 <= 1
 0 <= x173 <= 1
 0 <= x174 <= 1
 0 <= x175 <= 1
 0 <= x176 <= 1
 0 <= x177 <= 1
 0 <= x178 <= 1
 0 <= x179 <= 1
 0 <= x180 <= 1
 0 <= x181 <= 1
 0 <= x182 <= 1
 0 <= x183 <= 1
 0 <= x184 <= 1
 0 <= x185 <= 1
 0 <= x186 <= 1
 0 <= x187 <= 1
 0 <= x188 <= 1
 0 <= x189 <= 1
 0 <= x190 <= 1
 0 <= x191 <= 1
 0 <= x192 <= 1
 0 <= x193 <= 1
 0 <= x194 <= 1
 0 <= x195 <= 1
 0 <= x196 <= 1
 0 <= x197 <= 1
 0 <= x198 <= 1
 0 <= x199 <= 1
 0 <= x200 <= 1
 0 <= x201 <= 1
 0 <= x202 <= 1
 0 <= x203 <= 1
 0 <= x204 <= 1
 0 <= x205 <= 1
 0 <= x206 <= 1
 0 <= x207 <= 1
 0 <= x208 <= 1
 0 <= x209 <= 1
 0 <= x210 <= 1
 0 <= x211 <= 1
 0 <= x212 <= 1
 0 <= x213 <= 1
 0 <= x214 <= 1
 0 <= x215 <= 1
 0 <= x216 <= 1
 0 <= x217 <= 1
 0 <= x218 <= 1
 0 <= x219 <= 1
 0 <= x220 <= 1
 0 <= x221 <= 1
 0 <= x222 <= 1
 0 <= x223 <= 1
 0 <= x224 <= 1
 0 <= x225 <= 1
 0 <= x226 <= 1
 0 <= x227 <= 1
 0 <= x228 <= 1
 0 <= x229 <= 1
 0 <= x230 <= 1
 0 <= x231 <= 1
 0 <= x232 <= 1
 0 <= x233 <= 1
 0 <= x234 <= 1
 0 <= x235 <= 1
 0 <= x236 <= 1
 0 <= x237 <= 1
 0 <= x238 <= 1
 0 <= x239 <= 1
 0 <= x240 <= 1
 0 <= x241 <= 1
 0 <= x242 <= 1
 0 <= x243 <= 1
 0 <= x244 <= 1
 0 <= x245 <= 1
 0 <= x246 <= 1
 0 <= x247 <= 1
 0 <= x248 <= 1
 0 <= x249 <= 1
 0 <= x250 <= 1
 0 <= x251 <= 1
 0 <= x252 <= 1
 0 <= x253 <= 1
 0 <= x254 <= 1
 0 <= x255 <= 1
 0 <= x256 <= 1
 0 <= x257 <= 1
 0 <= x258 <= 1
 0 <= x259 <= 1
 0 <= x260 <= 1
 0 <= x261 <= 1
 0 <= x262 <= 1
 0 <= x263 <= 1
 0 <= x264 <= 1
 0 <= x265 <= 1
 0 <= x266 <= 1
 0 <= x267 <= 1
 0 <= x268 <= 1
 0 <= x269 <= 1
 0 <= x270 <= 1
 0 <= x271 <= 1
 0 <= x272 <= 1
 0 <= x273 <= 1
 0 <= x274 <= 1
 0 <= x275 <= 1
 0 <= x276 <= 1
 0 <= x277 <= 1
 0 <= x278 <= 1
 0 <= x279 <= 1
 0 <= x280 <= 1
 0 <= x281 <= 1
 0 <= x282 <= 1
 0 <= x283 <= 1
 0 <= x284 <= 1
 0 <= x285 <= 1
 0 <= x286 <= 1
 0 <= x287 <= 1
 0 <= x288 <= 1
 0 <= x289 <= 1
 0 <= x290 <= 1
 0 <= x291 <= 1
 0 <= x292 <= 1
 0 <= x293 <= 1
 0 <= x294 <= 1
 0 <= x295 <= 1
 0 <= x296 <= 1
 0 <= x297 <= 1
 0 <= x298 <= 1
 0 <= x299 <= 1
 0 <= x300 <= 1
 0 <= x301 <= 1
 0 <= x302 <= 1
 0 <= x303 <= 1
 0 <= x304 <= 1
 0 <= x305 <= 1
 0 <= x306 <= 1
 0 <= x307 <= 1
 0 <= x308 <= 1
 0 <= x309 <= 1
 0 <= x310 <= 1
 0 <= x311 <= 1
 0 <= x312 <= 1
 0 <= x313 <= 1
 0 <= x314 <= 1
 0 <= x315 <= 1
 0 <= x316 <= 1
 0 <= x317 <= 1
 0 <= x318 <= 1
 0 <= x319 <= 1
 0 <= x320 <= 1
 0 <= x321 <= 1
 0 <= x322 <= 1
 0 <= x323 <= 1
 0 <= x324 <= 1
 0 <= x325 <= 1
 0 <= x326 <= 1
 0 <= x327 <= 1
 0 <= x328 <= 1
 0 <= x329 <= 1
 0 <= x330 <= 1
 0 <= x331 <= 1
 0 <= x332 <= 1
 0 <= x333 <= 1
 0 <= x334 <= 1
 0 <= x335 <= 1
 0 <= x336 <= 1
 0 <= x337 <= 1
 0 <= x338 <= 1
 0 <= x339 <= 1
 0 <= x340 <= 1
 0 <= x341 <= 1
 0 <= x342 <= 1
 0 <= x343 <= 1
 0 <= x344 <= 1
 0 <= x345 <= 1
 0 <= x346 <= 1
 0 <= x347 <= 1
 0 <= x348 <= 1
 0 <= x349 <= 1
 0 <= x350 <= 1
 0 <= x351 <= 1
 0 <= x352 <= 1
 0 <= x353 <= 1
 0 <= x354 <= 1
 0 <= x355 <= 1
 0 <= x356 <= 1
 0 <= x357 <= 1
 0 <= x358 <= 1
 0 <= x359 <= 1
 0 <= x360 <= 1
 0 <= x361 <= 1
 0 <= x362 <= 1
 0 <= x363 <= 1
 0 <= x364 <= 1
 0 <= x365 <= 1
 0 <= x366 <= 1
 0 <= x367 <= 1
 0 <= x368 <= 1
 0 <= x369 <= 1
 0 <= x370 <= 1
 0 <= x371 <= 1
 0 <= x372 <= 1
 0 <= x373 <= 1
 0 <= x374 <= 1
 0 <= x375 <= 1
 0 <= x376 <= 1
 0 <= x377 <= 1
 0 <= x378 <= 1
 0 <= x379 <= 1
 0 <= x380 <= 1
 0 <= x381 <= 1
 0 <= x382 <= 1
 0 <= x383 <= 1
 0 <= x384 <= 1
 0 <= x385 <= 1
 0 <= x386 <= 1
 0 <= x387 <= 1
 0 <= x388 <= 1
 0 <= x389 <= 1
 0 <= x390 <= 1
 0 <= x391 <= 1
 0 <= x392 <= 1
 0 <= x393 <= 1
 0 <= x394 <= 1
 0 <= x395 <= 1
 0 <= x396 <= 1
 0 <= x397 <= 1
 0 <= x398 <= 1
 0 <= x399 <= 1
 0 <= x400 <= 1
General
 x1 x2 x3 x4 x5 x6 x7 x8 x9 x10 x11 x12 x13 x14 x15 x16 x17 x18 x19 x20 x21 x22 x23 x24 x25 x26 x27 x28 x29 x30 x31 x32 x33 x34 x35 x36 x37 x38 x39 x40 x41 x42 x43 x44 x45 x46 x47 x48 x49 x50 x51 x52 x53 x54 x55 x56 x57 x58 x59 x60 x61 x62 x63 x64 x65 x66 x67 x68 x69 x70 x71 x72 x73 x74 x75 x76 x77 x78 x79 x80 x81 x82 x83 x84 x85 x86 x87 x88 x89 x90 x91 x92 x93 x94 x95 x96 x97 x98 x99 x100 x101 x102 x103 x104 x105 x106 x107 x108 x109 x110 x111 x112 x113 x114 x115 x116 x117 x118 x119 x120 x121 x122 x123 x124 x125 x126 x127 x128 x129 x130 x131 x132 x133 x134 x135 x136 x137 x138 x139 x140 x141 x142 x143 x144 x145 x146 x147 x148 x149 x150 x151 x152 x153 x154 x155 x156 x157 x158 x159 x160 x161 x162 x163 x164 x165 x166 x167 x168 x169 x170 x171 x172 x173 x174 x175 x176 x177 x178 x179 x180 x181 x182 x183 x184 x185 x186 x187 x188 x189 x190 x191 x192 x193 x194 x195 x196 x197 x198 x199 x200 x201 x202 x203 x204 x205 x206 x207 x208 x209 x210 x211 x212 x213 x214 x215 x216 x217 x218 x219 x220 x221 x222 x223 x224 x225 x226 x227 x228 x229 x230 x231 x232 x233 x234 x235 x236 x237 x238 x239 x240 x241 x242 x243 x244 x245 x246 x247 x248 x249 x250 x251 x252 x253 x254 x255 x256 x257 x258 x259 x260 x261 x262 x263 x264 x265 x266 x267 x268 x269 x270 x271 x272 x273 x274 x275 x276 x277 x278 x279 x280 x281 x282 x283 x284 x285 x286 x287 x288 x289 x290 x291 x292 x293 x294 x295 x296 x297 x298 x299 x300 x301 x302 x303 x304 x305 x306 x307 x308 x309 x310 x311 x312 x313 x314 x315 x316 x317 x318 x319 x320 x321 x322 x323 x324 x325 x326 x327 x328 x329 x330 x331 x332 x333 x334 x335 x336 x337 x338 x339 x340 x341 x342 x343 x344 x345 x346 x347 x348 x349 x350 x351 x352 x353 x354 x355 x356 x357 x358 x359 x360 x361 x362 x363 x364 x365 x366 x367 x368 x369 x370 x371 x372 x373 x374 x375 x376 x377 x378 x379 x380 x381 x382 x383 x384 x385 x386 x387 x388 x389 x390 x391 x392 x393 x394 x395 x396 x397 x398 x399 x400
End