instancias/entrada015.txt
400
999
288 399 454 917 100 164 89 464 852 518 443 678 940 997 188 709 733 563 56 360 85 375 377 160 657 51 364 602 272 403 790 104 112 956 154 534 931 440 958 146 436 986 408 259 977 741 989 693 812 695 657 361 269 742 264 683 18 606 272 327 489 429 233 443 582 188 889 562 175 956 632 527 331 967 151 395 230 849 293 399 539 835 943 399 175 668 207 471 81 698 581 225 558 471 749 641 202 67 10 313 456 799 734 483 383 957 554 982 51 765 281 633 166 322 230 929 867 537 39 356 331 714 326 769 165 27 269 331 223 992 756 870 424 43 829 77 475 170 105 229 484 165 721 444 842 651 116 882 93 825 666 350 885 275 517 905 294 338 275 10 383 462 808 415 130 568 154 731 727 2 768 506 858 237 450 964 186 643 582 565 834 784 238 19 859 11 31 836 112 317 741 419 798 285 427 81 41 833 815 626 671 780 204 167 834 40 837 614 972 139 153 39 967 273 916 257 615 321 177 494 201 756 658 204 448 194 820 802 660 815 80 851 932 421 603 595 814 1000 938 661 57 27 383 872 760 556 352 492 841 275 185 949 8 830 172 438 472 604 940 737 92 337 560 246 951 424 174 122 386 767 116 561 105 563 593 922 736 486 723 935 738 420 972 588 0 109 552 181 446 35 110 12 157 127 243 995 121 562 286 790 545 23 683 222 538 495 574 384 160 975 527 664 879 694 943 178 867 532 530 373 939 238 452 841 667 105 655 714 959 641 269 494 746 40 594 292 516 332 970 988 46 113 15 303 236 551 443 608 546 622 969 539 406 859 213 235 488 781 427 372 84 165 800 542 511 680 289 854 647 615 111 488 694 140 699 105 195 997 460 546 199 372 679 678 49 348 120 189 43 708 952 441 322 779 892 832 827 344 927 603
817 991 976 22 151 47 894 559 804 368 652 266 939 108 810 325 892 191 876 230 72 210 479 352 997 864 654 959 506 779 261 165 88 639 978 889 578 272 647 729 40 185 523 928 279 402 135 260 223 344 93 13 343 697 577 776 234 329 406 324 682 482 193 957 266 899 367 27 969 463 597 87 997 783 258 643 970 947 544 281 989 440 901 604 601 807 967 523 695 2 735 502 867 590 710 654 990 788 452 524 61 600 162 353 60 335 223 294 947 979 658 751 433 786 776 804 774 263 151 663 913 881 454 99 243 840 219 407 648 907 638 206 558 891 767 807 812 990 225 753 763 665 185 641 646 437 388 450 26 132 343 923 913 180 544 113 139 911 832 592 508 86 726 395 838 498 498 161 698 526 135 466 481 87 970 751 567 104 107 531 337 858 477 937 590 424 428 484 712 251 357 759 716 43 979 721 156 391 588 297 765 834 733 349 421 803 536 882 549 473 51 787 668 421 796 84 296 54 471 275 243 754 401 733 772 606 223 3 256 491 847 480 593 867 566 309 376 157 396 807 204 295 165 899 182 587 55 72 199 939 430 101 555 342 202 534 469 88 434 541 237 871 222 145 370 701 805 867 467 174 326 409 140 748 818 187 885 788 569 473 188 966 27 53 628 381 471 107 739 100 360 778 857 295 607 557 6 769 620 966 903 507 791 241 34 936 118 115 827 772 396 980 97 787 487 490 836 443 100 54 831 161 413 295 900 858 399 639 601 312 204 851 353 934 569 423 525 144 35 876 245 599 672 58 291 744 263 616 701 953 646 111 862 546 575 504 347 919 54 499 407 979 288 754 888 953 191 698 877 501 563 22 14 85 279 940 957 785 465 944 546 194 435 176 733 878 798 337 510 543 688 382 171 167 968 978 301 159 329 934